750
[75,76,77,81,82,83,84,86,87,88,89,91,93,94,95,97,98,99,100,101,102,103,104,105,106,110,111,112,115,116,117,119,120,121,122,124,127,129,130,131,133,136,137,138,139,140,141,143,144,146,147,150,154,156,157,158,160,161,162,163,164,166,168,169,171,172,175,176,180,181,184,186,187,190,192,195,196,197,198,200,201,202,204,205,206,211,212,213,215,216,217,218,220,222,223,224,225,227,229,230,231,232,233,234,238,239,241,242,244,245,246,247,248,249,251,253,254,260,262,263,264,265,266,267,269,270,271,272,273,274,276,277,279,280,281,282,283,285,286,287,288,289,292,294,295,296,300,302,303,304,305,306,308,309,311,312,313,317,318,319,320,321,323,325,328,329,330,331,332,335,336,337,339,340,341,342,343,344,346,347,348,349,350,352,353,354,355,356,357,358,359,362,363,364,365,366,373,374,376,378,380,381,382,383,384,386,387,388,390,392,394,395,396,398,399,400,405,406,407,408,410,411,412,413,414,415,416,417,418,421,422,426,427,428,429,431,432,433,434,435,436,439,440,441,442,445,447,448,449,450,454,455,456,457,458,459,460,461,464,466,468,469,470,472,473,474,478,479,481,483,484,485,487,488,489,490,491,492,493,495,496,500,502,503,504,507,508,509,511,513,514,515,516,517,519,522,523,524,525]
[1,1,2,1,1,1,1,3,2,2,1,1,1,3,2,1,2,1,1,1,1,2,1,1,2,1,1,2,1,2,1,2,2,2,2,5,1,1,1,2,1,1,1,1,1,2,5,1,1,1,1,3,1,1,1,4,1,4,3,1,3,2,2,1,2,2,1,3,2,1,3,2,1,2,1,1,2,1,1,1,2,4,2,1,3,1,3,2,1,1,1,2,1,1,1,1,2,1,2,1,2,4,1,1,3,1,1,4,1,1,2,4,1,3,3,1,1,1,1,1,1,1,1,1,1,1,2,2,1,1,1,1,2,1,2,2,2,2,6,1,1,1,4,1,2,2,1,3,1,1,2,1,1,1,3,1,1,1,1,2,1,1,2,2,3,2,1,1,3,2,3,1,1,2,1,1,3,1,3,1,2,2,4,1,1,4,1,1,2,2,1,1,1,3,1,1,2,1,1,1,2,2,3,1,1,1,2,2,3,3,2,3,1,2,2,1,2,2,1,2,1,1,3,1,2,1,1,2,1,2,2,2,2,1,2,1,1,1,1,2,3,3,1,2,2,3,3,2,1,2,1,2,2,3,2,2,1,1,2,2,1,2,2,1,1,1,1,1,1,1,2,1,3,1,1,1,2,2,1,1,1,1,2,3,1,2,1,2,1,2,2,2,1,2,3,2,1,3,1]
